p ocr 646 641 1286
1 647
2 648
3 649
3 853
3 854
3 855
3 856
4 650
4 858
4 859
4 860
4 861
5 651
6 652
7 653
7 862
8 654
8 867
9 655
9 868
10 656
11 657
12 658
12 870
13 659
14 660
14 872
15 661
16 662
17 663
18 664
19 665
19 875
19 876
20 666
20 882
20 883
21 667
22 668
22 884
22 885
23 669
23 888
23 889
24 670
24 890
25 671
25 895
26 672
26 896
26 897
27 673
27 898
27 899
27 900
28 674
28 905
29 675
29 908
30 676
31 677
32 678
32 909
32 910
33 679
33 912
34 680
34 913
35 681
36 682
36 916
37 683
37 917
37 918
37 919
37 920
37 921
37 922
38 684
38 925
39 685
39 926
39 927
39 928
39 929
40 686
40 930
41 687
41 931
42 688
42 933
42 934
42 935
42 936
42 937
43 689
44 690
44 943
44 944
45 691
45 945
45 946
45 947
46 692
46 948
46 949
46 950
47 693
47 951
48 694
49 695
49 952
49 953
50 696
51 697
51 955
52 698
52 957
53 699
53 961
53 962
54 700
55 701
55 965
56 702
56 966
57 703
57 967
57 968
57 969
57 970
57 971
57 972
58 704
59 705
59 977
60 706
60 978
61 707
62 708
63 709
63 993
64 710
65 711
66 712
66 1002
66 1003
67 713
68 714
69 715
70 716
70 1012
70 1013
70 1014
70 1015
70 1016
70 1017
70 1018
70 1019
70 1020
70 1021
70 1022
71 717
71 1025
72 718
73 719
73 1026
74 720
74 1027
75 721
76 722
77 723
77 1032
78 724
78 1035
79 725
80 726
80 1044
81 727
82 728
83 729
84 730
85 731
85 1050
86 732
87 733
88 734
88 1051
88 1052
88 1053
89 735
90 736
90 1054
91 737
91 1055
92 738
92 1058
92 1059
93 739
93 1064
93 1065
93 1066
94 740
94 1067
94 1068
94 1069
95 741
96 742
96 1070
96 1071
96 1072
97 743
97 1073
98 744
98 1074
99 745
99 1075
99 1076
99 1077
99 1078
99 1079
100 746
100 1080
100 1081
101 747
102 748
103 749
103 1089
103 1090
103 1091
104 750
105 751
106 752
107 753
108 754
109 755
109 1095
109 1096
110 756
111 757
111 1102
111 1103
112 758
112 1104
113 759
114 760
115 761
116 762
116 1105
116 1106
116 1107
117 763
118 764
118 1114
118 1115
118 1116
118 1117
119 765
120 766
120 1119
121 767
122 768
123 769
123 1121
124 770
124 1122
124 1123
125 771
126 772
126 1130
127 773
127 1131
128 774
128 1132
129 775
129 1134
130 776
131 777
132 778
132 1135
133 779
134 780
134 1136
134 1137
135 781
136 782
136 1144
137 783
137 1147
138 784
139 785
140 786
140 1153
140 1154
141 787
141 1155
142 788
142 1156
142 1157
142 1158
142 1159
143 789
143 1160
143 1161
143 1162
144 790
145 791
146 792
146 1164
147 793
148 794
148 1165
149 795
149 1166
149 1167
150 796
151 797
152 798
153 799
154 800
154 1188
154 1189
154 1190
155 801
156 802
157 803
157 1191
158 804
159 805
160 806
161 807
161 1194
161 1195
161 1196
161 1197
161 1198
161 1199
161 1200
162 808
162 1203
163 809
163 1204
164 810
164 1205
164 1206
164 1207
165 811
165 1210
166 812
167 813
168 814
169 815
169 1215
169 1216
170 816
170 1217
170 1218
170 1219
171 817
172 818
173 819
173 1225
173 1226
173 1227
173 1228
174 820
174 1229
175 821
176 822
177 823
178 824
178 1236
178 1237
179 825
179 1238
179 1239
179 1240
180 826
181 827
181 1241
182 828
182 1246
183 829
183 1252
183 1253
183 1254
183 1255
184 830
185 831
186 832
186 1256
187 833
187 1257
188 834
188 1263
189 835
190 836
191 837
192 838
192 1264
192 1265
193 839
193 1267
194 840
195 841
195 1268
195 1269
196 842
197 843
197 1270
198 844
198 1271
198 1272
198 1273
198 1274
199 845
199 1275
199 1276
199 1277
200 846
201 847
202 848
202 1279
202 1280
203 849
204 850
204 1282
205 851
206 852
206 1287
212 857
221 863
221 864
221 865
221 866
225 869
228 871
230 873
231 874
238 877
238 878
238 879
238 880
238 881
251 886
251 887
255 891
255 892
255 893
255 894
264 901
266 902
266 903
266 904
268 906
268 907
270 911
274 914
274 915
278 923
278 924
285 932
287 938
287 939
287 940
287 941
287 942
299 954
305 956
306 958
306 959
307 960
312 963
312 964
326 973
326 974
326 975
326 976
329 979
329 980
329 981
329 982
329 983
329 984
329 985
335 986
336 987
336 988
336 989
337 990
337 991
337 992
341 994
341 995
341 996
341 997
341 998
341 999
341 1000
345 1001
348 1004
348 1005
348 1006
348 1007
349 1008
350 1009
350 1010
350 1011
359 1023
359 1024
363 1028
365 1029
365 1030
365 1031
368 1033
368 1034
369 1036
369 1037
369 1038
370 1039
371 1040
371 1041
373 1042
373 1043
376 1045
376 1046
376 1047
382 1048
382 1049
392 1056
392 1057
399 1060
399 1061
400 1062
400 1063
437 1082
437 1083
438 1084
438 1085
438 1086
438 1087
440 1088
447 1092
447 1093
450 1094
452 1097
452 1098
453 1099
453 1100
453 1101
459 1108
460 1109
461 1110
461 1111
461 1112
464 1113
470 1118
474 1120
478 1124
478 1125
478 1126
478 1127
478 1128
478 1129
481 1133
482 1138
482 1139
482 1140
483 1141
483 1142
483 1143
487 1145
489 1146
491 1148
493 1149
493 1150
493 1151
493 1152
500 1163
503 1168
503 1169
506 1170
506 1171
506 1172
506 1173
506 1174
508 1175
508 1176
509 1177
509 1178
514 1179
514 1180
515 1181
515 1182
516 1183
517 1184
517 1185
517 1186
517 1187
521 1192
521 1193
533 1201
533 1202
542 1208
542 1209
544 1211
544 1212
547 1213
547 1214
555 1220
555 1221
555 1222
557 1223
557 1224
573 1230
574 1231
575 1232
575 1233
577 1234
578 1235
595 1242
595 1243
595 1244
595 1245
602 1247
602 1248
603 1249
603 1250
603 1251
609 1258
609 1259
609 1260
609 1261
609 1262
619 1266
636 1278
641 1281
644 1283
644 1284
645 1285
645 1286
2 647
3 648
4 649
212 649
5 650
217 650
6 651
7 652
8 653
220 653
221 653
9 654
10 655
11 656
222 656
12 657
223 657
224 657
225 657
13 658
228 658
229 658
14 659
15 660
16 661
17 662
18 663
230 663
231 663
19 664
20 665
237 665
238 665
239 665
240 665
241 665
242 665
21 666
245 666
22 667
23 668
249 668
250 668
251 668
252 668
24 669
25 670
255 670
26 671
27 672
259 672
28 673
264 673
265 673
266 673
29 674
267 674
268 674
30 675
31 676
32 677
269 677
33 678
270 678
34 679
35 680
273 680
36 681
274 681
37 682
38 683
278 683
39 684
40 685
41 686
42 687
285 687
43 688
44 689
287 689
288 689
45 690
46 691
291 691
47 692
295 692
296 692
48 693
49 694
50 695
51 696
299 696
52 697
304 697
305 697
53 698
306 698
307 698
54 699
55 700
312 700
313 700
56 701
57 702
58 703
325 703
326 703
59 704
60 705
328 705
61 706
62 707
329 707
330 707
331 707
332 707
333 707
334 707
335 707
336 707
337 707
338 707
339 707
63 708
64 709
65 710
341 710
342 710
343 710
344 710
345 710
66 711
346 711
67 712
347 712
348 712
349 712
350 712
68 713
69 714
70 715
71 716
358 716
359 716
72 717
73 718
74 719
75 720
363 720
364 720
365 720
76 721
366 721
367 721
77 722
78 723
368 723
79 724
369 724
370 724
371 724
372 724
373 724
80 725
374 725
81 726
376 726
377 726
82 727
83 728
378 728
379 728
84 729
380 729
381 729
382 729
85 730
383 730
384 730
86 731
87 732
88 733
89 734
90 735
91 736
390 736
391 736
92 737
392 737
93 738
399 738
400 738
94 739
95 740
96 741
97 742
419 742
98 743
99 744
420 744
100 745
101 746
437 746
102 747
103 748
438 748
439 748
440 748
104 749
444 749
105 750
106 751
107 752
445 752
446 752
447 752
448 752
108 753
449 753
450 753
109 754
110 755
452 755
111 756
453 756
112 757
113 758
114 759
115 760
116 761
117 762
118 763
459 763
460 763
461 763
462 763
463 763
464 763
465 763
119 764
120 765
470 765
121 766
472 766
122 767
473 767
474 767
475 767
476 767
123 768
124 769
125 770
126 771
478 771
127 772
128 773
479 773
480 773
129 774
481 774
130 775
131 776
132 777
133 778
134 779
135 780
136 781
482 781
483 781
484 781
137 782
487 782
488 782
489 782
490 782
138 783
491 783
139 784
492 784
140 785
493 785
141 786
494 786
495 786
142 787
143 788
144 789
500 789
145 790
146 791
147 792
148 793
149 794
150 795
503 795
151 796
504 796
152 797
505 797
506 797
507 797
508 797
509 797
510 797
511 797
512 797
513 797
514 797
153 798
515 798
154 799
516 799
517 799
155 800
156 801
157 802
158 803
519 803
520 803
521 803
159 804
522 804
160 805
161 806
162 807
533 807
163 808
535 808
164 809
537 809
165 810
542 810
166 811
543 811
167 812
544 812
168 813
545 813
169 814
546 814
547 814
170 815
548 815
549 815
171 816
172 817
173 818
554 818
555 818
556 818
557 818
174 819
564 819
565 819
566 819
567 819
568 819
175 820
572 820
573 820
574 820
575 820
176 821
576 821
177 822
178 823
577 823
578 823
179 824
589 824
180 825
181 826
594 826
182 827
595 827
596 827
183 828
602 828
603 828
184 829
605 829
606 829
185 830
186 831
187 832
188 833
608 833
609 833
610 833
189 834
611 834
190 835
191 836
612 836
192 837
193 838
619 838
620 838
194 839
195 840
196 841
197 842
621 842
198 843
623 843
199 844
200 845
635 845
636 845
201 846
202 847
203 848
641 848
204 849
642 849
205 850
644 850
206 851
645 851
207 852
208 853
209 854
210 854
211 856
213 859
214 860
215 860
216 861
218 862
219 862
226 870
227 870
232 875
233 875
234 875
235 876
236 876
243 882
244 883
246 884
247 885
248 885
253 888
254 890
256 895
257 897
258 897
260 898
261 898
262 900
263 900
271 912
272 913
275 916
276 917
277 922
279 925
280 928
281 928
282 930
283 930
284 931
286 937
289 943
290 946
292 948
293 950
294 950
297 951
298 953
300 955
301 955
302 955
303 955
308 961
309 961
310 961
311 961
314 966
315 966
316 967
317 967
318 967
319 967
320 967
321 967
322 967
323 971
324 972
327 977
340 993
351 1012
352 1012
353 1012
354 1012
355 1014
356 1016
357 1017
360 1025
361 1025
362 1027
375 1044
385 1053
386 1054
387 1054
388 1054
389 1054
393 1058
394 1058
395 1058
396 1059
397 1059
398 1059
401 1064
402 1064
403 1065
404 1066
405 1066
406 1066
407 1067
408 1068
409 1069
410 1069
411 1070
412 1070
413 1070
414 1070
415 1070
416 1070
417 1070
418 1070
421 1075
422 1077
423 1077
424 1077
425 1079
426 1079
427 1079
428 1079
429 1079
430 1079
431 1079
432 1079
433 1079
434 1079
435 1080
436 1081
441 1089
442 1089
443 1090
451 1095
454 1102
455 1103
456 1103
457 1105
458 1105
466 1116
467 1116
468 1117
469 1117
471 1119
477 1123
485 1144
486 1144
496 1156
497 1156
498 1158
499 1160
501 1166
502 1166
518 1188
523 1195
524 1195
525 1195
526 1195
527 1195
528 1197
529 1197
530 1198
531 1199
532 1199
534 1203
536 1204
538 1206
539 1206
540 1206
541 1207
550 1217
551 1218
552 1218
553 1218
558 1225
559 1225
560 1225
561 1225
562 1225
563 1226
569 1229
570 1229
571 1229
579 1236
580 1236
581 1236
582 1236
583 1236
584 1237
585 1237
586 1237
587 1237
588 1237
590 1238
591 1238
592 1238
593 1239
597 1246
598 1246
599 1246
600 1246
601 1246
604 1252
607 1256
613 1264
614 1265
615 1265
616 1265
617 1265
618 1265
622 1270
624 1271
625 1271
626 1272
627 1272
628 1272
629 1274
630 1275
631 1275
632 1275
633 1275
634 1275
637 1280
638 1280
639 1280
640 1280
643 1282
646 1287